11,9	0,0	13,4	18,3	0,0	0,0	0,0	0,0	0,0	16,9
12,7	18,9	0,0	13,5	17,3	0,0	0,0	19,7	0,0	0,0
0,0	0,0	10,7	0,0	8,2	19,9	0,0	0,0	17,9	0,0
11,0	0,0	8,4	0,0	0,0	0,0	13,5	0,0	0,0	0,0
0,0	8,0	0,0	9,5	17,0	0,0	0,0	8,8	0,0	0,0
0,0	19,1	10,7	0,0	9,3	7,4	0,0	0,0	15,9	0,0
0,0	6,6	0,0	17,3	0,0	0,0	16,5	0,0	0,0	15,7
18,2	0,0	12,3	0,0	0,0	0,0	0,0	0,0	0,0	15,9
0,0	13,5	0,0	17,3	13,0	0,0	0,0	8,7	0,0	0,0
0,0	0,0	6,3	0,0	0,0	8,4	11,7	0,0	0,0	14,2
									
4,2	4,3	5,0	4,1	4,9	4,9	3,8	4,6	5,0	5,0
